32      4       
10      10      10      10      
0       0       0       0       0       3       2       3       6       
5       1       1       1       0       3       4       5       9       
3       3       5       0       1       2       7       10      
2       5       5       4       0       4       10      11      13      14      
5       4       5       0       3       2       8       10      
1       4       7       1       0       2       9       11      
9       4       5       4       0       2       9       12      
2       2       0       5       3       4       13      14      15      20      
1       6       0       8       4       4       13      14      16      20      
6       0       2       4       4       3       12      17      20      
9       0       5       5       2       1       12      
5       4       5       0       2       2       15      19      
8       7       1       0       6       2       17      18      
1       1       0       4       5       2       17      18      
2       0       8       3       2       1       16      
3       5       4       3       0       2       18      22      
4       6       4       4       0       3       19      22      25      
8       4       2       5       0       3       21      25      27      
10      0       3       4       2       3       23      24      27      
2       8       4       0       8       3       23      24      25      
2       6       4       3       0       2       23      24      
1       2       1       0       8       1       23      
4       3       4       0       5       1       26      
7       2       0       4       4       1       26      
4       2       5       0       5       1       26      
8       0       5       7       6       2       28      29      
6       1       3       0       5       1       28      
6       4       2       2       0       1       30      
1       4       0       5       2       1       31      
3       7       5       0       4       1       32      
9       5       5       0       3       1       32      
0       0       0       0       0       0       
